20 965
525 7 446 7 267 7 66 9 891 11 731 18
525 7 479 7 356 7 107 9 6 11 781 15 614 22
525 7 479 7 356 7 107 9 6 11 781 15 614 22
525 7 479 7 356 7 107 9 6 11 781 15 614 22
525 7 479 7 356 7 107 9 6 11 781 15 614 22
525 7 445 7 286 10
539 7 515 7 439 11
530 7 454 10
535 8 494 8 321 11
525 7 445 7 264 7 63 9 889 11 721 18
535 8 494 8 422 11
528 7 482 7 366 7 202 12
528 7 482 7 365 7 117 9 959 11 735 15 583 22
525 7 479 7 358 7 163 9 10 11 816 18
521 7 473 7 324 11
525 7 484 7 368 7 123 9 857 11 631 18
525 7 505 7 381 7 218 9 50 11 850 15 664 21
525 7 482 7 362 7 118 9 855 11 673 18
520 7 442 7 297 7 153 12
520 7 442 7 297 7 153 12
